1241.42
0 61 52 5 92 62 4 35 94 63 75 3 34 16 20 6 24 18 56 76 79 83 58 71 81 30 44 68 72 59 91 54 29 88 38 90 73 87 41 49 36 70 39 47 86 40 55 25 11 37 57 97 26 46 27 60 84 78 12 15 66 43 17 51 9 45 1 32 53 96 82 65 14 67 50 77 21 22 2 13 31 23 7 93 33 10 69 48 64 89 85 99 98 8 19 74 42 95 80 28
